;; for n in `seq 11 99` ; do if [ $(($n % 10)) != 0 ]; then echo "(declare-const n${n} Int)\n(assert (> n${n} 0))\n(assert (< n${n} 10))" ; fi ; done
(declare-const n11 Int)
(assert (> n11 0))
(assert (< n11 10))
(declare-const n12 Int)
(assert (> n12 0))
(assert (< n12 10))
(declare-const n13 Int)
(assert (> n13 0))
(assert (< n13 10))
(declare-const n14 Int)
(assert (> n14 0))
(assert (< n14 10))
(declare-const n15 Int)
(assert (> n15 0))
(assert (< n15 10))
(declare-const n16 Int)
(assert (> n16 0))
(assert (< n16 10))
(declare-const n17 Int)
(assert (> n17 0))
(assert (< n17 10))
(declare-const n18 Int)
(assert (> n18 0))
(assert (< n18 10))
(declare-const n19 Int)
(assert (> n19 0))
(assert (< n19 10))
(declare-const n21 Int)
(assert (> n21 0))
(assert (< n21 10))
(declare-const n22 Int)
(assert (> n22 0))
(assert (< n22 10))
(declare-const n23 Int)
(assert (> n23 0))
(assert (< n23 10))
(declare-const n24 Int)
(assert (> n24 0))
(assert (< n24 10))
(declare-const n25 Int)
(assert (> n25 0))
(assert (< n25 10))
(declare-const n26 Int)
(assert (> n26 0))
(assert (< n26 10))
(declare-const n27 Int)
(assert (> n27 0))
(assert (< n27 10))
(declare-const n28 Int)
(assert (> n28 0))
(assert (< n28 10))
(declare-const n29 Int)
(assert (> n29 0))
(assert (< n29 10))
(declare-const n31 Int)
(assert (> n31 0))
(assert (< n31 10))
(declare-const n32 Int)
(assert (> n32 0))
(assert (< n32 10))
(declare-const n33 Int)
(assert (> n33 0))
(assert (< n33 10))
(declare-const n34 Int)
(assert (> n34 0))
(assert (< n34 10))
(declare-const n35 Int)
(assert (> n35 0))
(assert (< n35 10))
(declare-const n36 Int)
(assert (> n36 0))
(assert (< n36 10))
(declare-const n37 Int)
(assert (> n37 0))
(assert (< n37 10))
(declare-const n38 Int)
(assert (> n38 0))
(assert (< n38 10))
(declare-const n39 Int)
(assert (> n39 0))
(assert (< n39 10))
(declare-const n41 Int)
(assert (> n41 0))
(assert (< n41 10))
(declare-const n42 Int)
(assert (> n42 0))
(assert (< n42 10))
(declare-const n43 Int)
(assert (> n43 0))
(assert (< n43 10))
(declare-const n44 Int)
(assert (> n44 0))
(assert (< n44 10))
(declare-const n45 Int)
(assert (> n45 0))
(assert (< n45 10))
(declare-const n46 Int)
(assert (> n46 0))
(assert (< n46 10))
(declare-const n47 Int)
(assert (> n47 0))
(assert (< n47 10))
(declare-const n48 Int)
(assert (> n48 0))
(assert (< n48 10))
(declare-const n49 Int)
(assert (> n49 0))
(assert (< n49 10))
(declare-const n51 Int)
(assert (> n51 0))
(assert (< n51 10))
(declare-const n52 Int)
(assert (> n52 0))
(assert (< n52 10))
(declare-const n53 Int)
(assert (> n53 0))
(assert (< n53 10))
(declare-const n54 Int)
(assert (> n54 0))
(assert (< n54 10))
(declare-const n55 Int)
(assert (> n55 0))
(assert (< n55 10))
(declare-const n56 Int)
(assert (> n56 0))
(assert (< n56 10))
(declare-const n57 Int)
(assert (> n57 0))
(assert (< n57 10))
(declare-const n58 Int)
(assert (> n58 0))
(assert (< n58 10))
(declare-const n59 Int)
(assert (> n59 0))
(assert (< n59 10))
(declare-const n61 Int)
(assert (> n61 0))
(assert (< n61 10))
(declare-const n62 Int)
(assert (> n62 0))
(assert (< n62 10))
(declare-const n63 Int)
(assert (> n63 0))
(assert (< n63 10))
(declare-const n64 Int)
(assert (> n64 0))
(assert (< n64 10))
(declare-const n65 Int)
(assert (> n65 0))
(assert (< n65 10))
(declare-const n66 Int)
(assert (> n66 0))
(assert (< n66 10))
(declare-const n67 Int)
(assert (> n67 0))
(assert (< n67 10))
(declare-const n68 Int)
(assert (> n68 0))
(assert (< n68 10))
(declare-const n69 Int)
(assert (> n69 0))
(assert (< n69 10))
(declare-const n71 Int)
(assert (> n71 0))
(assert (< n71 10))
(declare-const n72 Int)
(assert (> n72 0))
(assert (< n72 10))
(declare-const n73 Int)
(assert (> n73 0))
(assert (< n73 10))
(declare-const n74 Int)
(assert (> n74 0))
(assert (< n74 10))
(declare-const n75 Int)
(assert (> n75 0))
(assert (< n75 10))
(declare-const n76 Int)
(assert (> n76 0))
(assert (< n76 10))
(declare-const n77 Int)
(assert (> n77 0))
(assert (< n77 10))
(declare-const n78 Int)
(assert (> n78 0))
(assert (< n78 10))
(declare-const n79 Int)
(assert (> n79 0))
(assert (< n79 10))
(declare-const n81 Int)
(assert (> n81 0))
(assert (< n81 10))
(declare-const n82 Int)
(assert (> n82 0))
(assert (< n82 10))
(declare-const n83 Int)
(assert (> n83 0))
(assert (< n83 10))
(declare-const n84 Int)
(assert (> n84 0))
(assert (< n84 10))
(declare-const n85 Int)
(assert (> n85 0))
(assert (< n85 10))
(declare-const n86 Int)
(assert (> n86 0))
(assert (< n86 10))
(declare-const n87 Int)
(assert (> n87 0))
(assert (< n87 10))
(declare-const n88 Int)
(assert (> n88 0))
(assert (< n88 10))
(declare-const n89 Int)
(assert (> n89 0))
(assert (< n89 10))
(declare-const n91 Int)
(assert (> n91 0))
(assert (< n91 10))
(declare-const n92 Int)
(assert (> n92 0))
(assert (< n92 10))
(declare-const n93 Int)
(assert (> n93 0))
(assert (< n93 10))
(declare-const n94 Int)
(assert (> n94 0))
(assert (< n94 10))
(declare-const n95 Int)
(assert (> n95 0))
(assert (< n95 10))
(declare-const n96 Int)
(assert (> n96 0))
(assert (< n96 10))
(declare-const n97 Int)
(assert (> n97 0))
(assert (< n97 10))
(declare-const n98 Int)
(assert (> n98 0))
(assert (< n98 10))
(declare-const n99 Int)
(assert (> n99 0))
(assert (< n99 10))
(assert (and (and (and (and (and (and (and (and (and (and (and (and (and (and (and (and (and (and (and (and (and (and (and (and (and (and (and (and (and (and (and (and (and (and (and (and (and (and (and (and (and (and (and (and (and (and (and (and (and (and (and (and (and (and (and (and (and (and (and (and (and (and (and (and (and (and (and (and (and (and (and (and (and (and (and (and (and (and (and (and (and (and (and (and (and (and (and (and (and (and (and (and (and (and (and (and (and (and (and (and (and (and (and (and (and (and (and (and (and (and (and (and (and (and (and (and (and (and (and (and (and (and (and (and (and (and (and (and (and (and (and (and (and (and (and (and (and (and (and (and (and (and (and (and (and (and (and (and (and (and (and (and (and (and (and (and (and (and (and (and (and (and (and (and (and (and (and (and (and (and (and (and (and (and (and (and (and (and (and (and (and (and (and (and (and (and (and (and (and (and (and (and (and (and (and (and (and (and (and (and (and (and (and (and (and (and (and (and (and (and (and (and (and (and (and (and (and (and (and (and (and (and (and (and (and (and (and (and (and (and (and (and (and (and (and (and (and (and (and (and (and (and (and (and (and (and (and (and (and (and (and (and (and (and (and (and (and (and (and (and (and (and (and (and (and (and (and (and (and (and (and (and (and (and (and (and (and (and (and (and (and (and (and (and (and (and (and (and (and (and (and (and (and (and (and (and (and (and (and (and (and (and (and (and (and (and (and (and (and (and (and (and (and (and (and (and (and (and (and (and (and (and (and (and (and (and (and (and (and (and (and (and (and (and (and (and (and (and (and (and (and (and (and (and (and (and (and (and (and (and (and (and (and (and (and (and (and (and (and (and (and (and (and (and (and (and (and (and (and (and (and (and (and (and (and (and (and (and (and (and (and (and (and (and (and (and (and (and (and (and (and (and (and (and (and (and (and (and (and (and (and (and (and (and (and (and (and (and (and (and (and (and (and (and (and (and (and (and (and (and (and (and (and (and (and (and (and (and (and (and (and (and (and (and (and (and (and (and (and (and (and (and (and (and (and (and (and (and (and (and (and (and (and (and (and (and (and (and (and (and (and (and (and (and (and (and (and (and (and (and (and (and (and (and (and (and (and (and (and (and (and (and (and (and (and (and (and (and (and (and (and (and (and (and (and (and (and (and (and (and (and (and (and (and (and (and (and (and (and (and (and (and (and (and (and (and (and (and (and (and (and (and (and (and (and (and (and (and (and (and (and (and (and (and (and (and (and (and (and (and (and (and (and (and (and (and (and (and (and (and (and (and (and (and (and (and (and (and (and (and (and (and (and (and (and (and (and (and (and (and (and (and (and (and (and (and (and (and (and (and (and (and (and (and (and (and (and (and (and (and (and (and (and (and (and (and (and (and (and (and (and (and (and (and (and (and (and (and (and (and (and (and (and (and (and (and (and (and (and (and (and (and (and (and (and (and (and (and (and (and (and (and (and (and (and (and (and (and (and (and (and (and (and (and (and (and (and (and (and (and (and (and (and (and (and (and (and (and (and (and (and (and (and (and (and (and (and (and (and (and (and (and (and (and (and (and (and (and (and (and (and (and (and (and (and (and (and (and (and (and (and (and (and (and (and (and (and (and (and (and (and (and (and (and (and (and (and (and (and (and (and (and (and (and (and (and (and (and (and (and (and (and (and (and (and (and (and (and (and (and (and (and (and (and (and (and (and (and (and (and (and (and (and (and (and (and (and (and (and (and (and (and (and (and (and (and (and (and (and (and (and (and (and (and (and (and (and (and (and (and (and (and (and (and (and (and (and (and (and (and (and (and (and (and (and (and (and (and (and (and (and (and (and (and (and (and (and (and (and (and (and (and (and (and (and (and (and (and (and (and (and (and (and (and (and (and (and (and (and (and (and (and (and (and (and (and (not (= n11 n12)) (not (= n11 n13))) (not (= n11 n14))) (not (= n11 n15))) (not (= n11 n16))) (not (= n11 n17))) (not (= n11 n18))) (not (= n11 n19))) (not (= n11 n21))) (not (= n11 n22))) (not (= n11 n23))) (not (= n11 n31))) (not (= n11 n32))) (not (= n11 n33))) (not (= n11 n41))) (not (= n11 n51))) (not (= n11 n61))) (not (= n11 n71))) (not (= n11 n81))) (not (= n11 n91))) (not (= n12 n13))) (not (= n12 n14))) (not (= n12 n15))) (not (= n12 n16))) (not (= n12 n17))) (not (= n12 n18))) (not (= n12 n19))) (not (= n12 n21))) (not (= n12 n22))) (not (= n12 n23))) (not (= n12 n31))) (not (= n12 n32))) (not (= n12 n33))) (not (= n12 n42))) (not (= n12 n52))) (not (= n12 n62))) (not (= n12 n72))) (not (= n12 n82))) (not (= n12 n92))) (not (= n13 n14))) (not (= n13 n15))) (not (= n13 n16))) (not (= n13 n17))) (not (= n13 n18))) (not (= n13 n19))) (not (= n13 n21))) (not (= n13 n22))) (not (= n13 n23))) (not (= n13 n31))) (not (= n13 n32))) (not (= n13 n33))) (not (= n13 n43))) (not (= n13 n53))) (not (= n13 n63))) (not (= n13 n73))) (not (= n13 n83))) (not (= n13 n93))) (not (= n14 n15))) (not (= n14 n16))) (not (= n14 n17))) (not (= n14 n18))) (not (= n14 n19))) (not (= n14 n24))) (not (= n14 n25))) (not (= n14 n26))) (not (= n14 n34))) (not (= n14 n35))) (not (= n14 n36))) (not (= n14 n44))) (not (= n14 n54))) (not (= n14 n64))) (not (= n14 n74))) (not (= n14 n84))) (not (= n14 n94))) (not (= n15 n16))) (not (= n15 n17))) (not (= n15 n18))) (not (= n15 n19))) (not (= n15 n24))) (not (= n15 n25))) (not (= n15 n26))) (not (= n15 n34))) (not (= n15 n35))) (not (= n15 n36))) (not (= n15 n45))) (not (= n15 n55))) (not (= n15 n65))) (not (= n15 n75))) (not (= n15 n85))) (not (= n15 n95))) (not (= n16 n17))) (not (= n16 n18))) (not (= n16 n19))) (not (= n16 n24))) (not (= n16 n25))) (not (= n16 n26))) (not (= n16 n34))) (not (= n16 n35))) (not (= n16 n36))) (not (= n16 n46))) (not (= n16 n56))) (not (= n16 n66))) (not (= n16 n76))) (not (= n16 n86))) (not (= n16 n96))) (not (= n17 n18))) (not (= n17 n19))) (not (= n17 n27))) (not (= n17 n28))) (not (= n17 n29))) (not (= n17 n37))) (not (= n17 n38))) (not (= n17 n39))) (not (= n17 n47))) (not (= n17 n57))) (not (= n17 n67))) (not (= n17 n77))) (not (= n17 n87))) (not (= n17 n97))) (not (= n18 n19))) (not (= n18 n27))) (not (= n18 n28))) (not (= n18 n29))) (not (= n18 n37))) (not (= n18 n38))) (not (= n18 n39))) (not (= n18 n48))) (not (= n18 n58))) (not (= n18 n68))) (not (= n18 n78))) (not (= n18 n88))) (not (= n18 n98))) (not (= n19 n27))) (not (= n19 n28))) (not (= n19 n29))) (not (= n19 n37))) (not (= n19 n38))) (not (= n19 n39))) (not (= n19 n49))) (not (= n19 n59))) (not (= n19 n69))) (not (= n19 n79))) (not (= n19 n89))) (not (= n19 n99))) (not (= n21 n22))) (not (= n21 n23))) (not (= n21 n24))) (not (= n21 n25))) (not (= n21 n26))) (not (= n21 n27))) (not (= n21 n28))) (not (= n21 n29))) (not (= n21 n31))) (not (= n21 n32))) (not (= n21 n33))) (not (= n21 n41))) (not (= n21 n51))) (not (= n21 n61))) (not (= n21 n71))) (not (= n21 n81))) (not (= n21 n91))) (not (= n22 n23))) (not (= n22 n24))) (not (= n22 n25))) (not (= n22 n26))) (not (= n22 n27))) (not (= n22 n28))) (not (= n22 n29))) (not (= n22 n31))) (not (= n22 n32))) (not (= n22 n33))) (not (= n22 n42))) (not (= n22 n52))) (not (= n22 n62))) (not (= n22 n72))) (not (= n22 n82))) (not (= n22 n92))) (not (= n23 n24))) (not (= n23 n25))) (not (= n23 n26))) (not (= n23 n27))) (not (= n23 n28))) (not (= n23 n29))) (not (= n23 n31))) (not (= n23 n32))) (not (= n23 n33))) (not (= n23 n43))) (not (= n23 n53))) (not (= n23 n63))) (not (= n23 n73))) (not (= n23 n83))) (not (= n23 n93))) (not (= n24 n25))) (not (= n24 n26))) (not (= n24 n27))) (not (= n24 n28))) (not (= n24 n29))) (not (= n24 n34))) (not (= n24 n35))) (not (= n24 n36))) (not (= n24 n44))) (not (= n24 n54))) (not (= n24 n64))) (not (= n24 n74))) (not (= n24 n84))) (not (= n24 n94))) (not (= n25 n26))) (not (= n25 n27))) (not (= n25 n28))) (not (= n25 n29))) (not (= n25 n34))) (not (= n25 n35))) (not (= n25 n36))) (not (= n25 n45))) (not (= n25 n55))) (not (= n25 n65))) (not (= n25 n75))) (not (= n25 n85))) (not (= n25 n95))) (not (= n26 n27))) (not (= n26 n28))) (not (= n26 n29))) (not (= n26 n34))) (not (= n26 n35))) (not (= n26 n36))) (not (= n26 n46))) (not (= n26 n56))) (not (= n26 n66))) (not (= n26 n76))) (not (= n26 n86))) (not (= n26 n96))) (not (= n27 n28))) (not (= n27 n29))) (not (= n27 n37))) (not (= n27 n38))) (not (= n27 n39))) (not (= n27 n47))) (not (= n27 n57))) (not (= n27 n67))) (not (= n27 n77))) (not (= n27 n87))) (not (= n27 n97))) (not (= n28 n29))) (not (= n28 n37))) (not (= n28 n38))) (not (= n28 n39))) (not (= n28 n48))) (not (= n28 n58))) (not (= n28 n68))) (not (= n28 n78))) (not (= n28 n88))) (not (= n28 n98))) (not (= n29 n37))) (not (= n29 n38))) (not (= n29 n39))) (not (= n29 n49))) (not (= n29 n59))) (not (= n29 n69))) (not (= n29 n79))) (not (= n29 n89))) (not (= n29 n99))) (not (= n31 n32))) (not (= n31 n33))) (not (= n31 n34))) (not (= n31 n35))) (not (= n31 n36))) (not (= n31 n37))) (not (= n31 n38))) (not (= n31 n39))) (not (= n31 n41))) (not (= n31 n51))) (not (= n31 n61))) (not (= n31 n71))) (not (= n31 n81))) (not (= n31 n91))) (not (= n32 n33))) (not (= n32 n34))) (not (= n32 n35))) (not (= n32 n36))) (not (= n32 n37))) (not (= n32 n38))) (not (= n32 n39))) (not (= n32 n42))) (not (= n32 n52))) (not (= n32 n62))) (not (= n32 n72))) (not (= n32 n82))) (not (= n32 n92))) (not (= n33 n34))) (not (= n33 n35))) (not (= n33 n36))) (not (= n33 n37))) (not (= n33 n38))) (not (= n33 n39))) (not (= n33 n43))) (not (= n33 n53))) (not (= n33 n63))) (not (= n33 n73))) (not (= n33 n83))) (not (= n33 n93))) (not (= n34 n35))) (not (= n34 n36))) (not (= n34 n37))) (not (= n34 n38))) (not (= n34 n39))) (not (= n34 n44))) (not (= n34 n54))) (not (= n34 n64))) (not (= n34 n74))) (not (= n34 n84))) (not (= n34 n94))) (not (= n35 n36))) (not (= n35 n37))) (not (= n35 n38))) (not (= n35 n39))) (not (= n35 n45))) (not (= n35 n55))) (not (= n35 n65))) (not (= n35 n75))) (not (= n35 n85))) (not (= n35 n95))) (not (= n36 n37))) (not (= n36 n38))) (not (= n36 n39))) (not (= n36 n46))) (not (= n36 n56))) (not (= n36 n66))) (not (= n36 n76))) (not (= n36 n86))) (not (= n36 n96))) (not (= n37 n38))) (not (= n37 n39))) (not (= n37 n47))) (not (= n37 n57))) (not (= n37 n67))) (not (= n37 n77))) (not (= n37 n87))) (not (= n37 n97))) (not (= n38 n39))) (not (= n38 n48))) (not (= n38 n58))) (not (= n38 n68))) (not (= n38 n78))) (not (= n38 n88))) (not (= n38 n98))) (not (= n39 n49))) (not (= n39 n59))) (not (= n39 n69))) (not (= n39 n79))) (not (= n39 n89))) (not (= n39 n99))) (not (= n41 n42))) (not (= n41 n43))) (not (= n41 n44))) (not (= n41 n45))) (not (= n41 n46))) (not (= n41 n47))) (not (= n41 n48))) (not (= n41 n49))) (not (= n41 n51))) (not (= n41 n52))) (not (= n41 n53))) (not (= n41 n61))) (not (= n41 n62))) (not (= n41 n63))) (not (= n41 n71))) (not (= n41 n81))) (not (= n41 n91))) (not (= n42 n43))) (not (= n42 n44))) (not (= n42 n45))) (not (= n42 n46))) (not (= n42 n47))) (not (= n42 n48))) (not (= n42 n49))) (not (= n42 n51))) (not (= n42 n52))) (not (= n42 n53))) (not (= n42 n61))) (not (= n42 n62))) (not (= n42 n63))) (not (= n42 n72))) (not (= n42 n82))) (not (= n42 n92))) (not (= n43 n44))) (not (= n43 n45))) (not (= n43 n46))) (not (= n43 n47))) (not (= n43 n48))) (not (= n43 n49))) (not (= n43 n51))) (not (= n43 n52))) (not (= n43 n53))) (not (= n43 n61))) (not (= n43 n62))) (not (= n43 n63))) (not (= n43 n73))) (not (= n43 n83))) (not (= n43 n93))) (not (= n44 n45))) (not (= n44 n46))) (not (= n44 n47))) (not (= n44 n48))) (not (= n44 n49))) (not (= n44 n54))) (not (= n44 n55))) (not (= n44 n56))) (not (= n44 n64))) (not (= n44 n65))) (not (= n44 n66))) (not (= n44 n74))) (not (= n44 n84))) (not (= n44 n94))) (not (= n45 n46))) (not (= n45 n47))) (not (= n45 n48))) (not (= n45 n49))) (not (= n45 n54))) (not (= n45 n55))) (not (= n45 n56))) (not (= n45 n64))) (not (= n45 n65))) (not (= n45 n66))) (not (= n45 n75))) (not (= n45 n85))) (not (= n45 n95))) (not (= n46 n47))) (not (= n46 n48))) (not (= n46 n49))) (not (= n46 n54))) (not (= n46 n55))) (not (= n46 n56))) (not (= n46 n64))) (not (= n46 n65))) (not (= n46 n66))) (not (= n46 n76))) (not (= n46 n86))) (not (= n46 n96))) (not (= n47 n48))) (not (= n47 n49))) (not (= n47 n57))) (not (= n47 n58))) (not (= n47 n59))) (not (= n47 n67))) (not (= n47 n68))) (not (= n47 n69))) (not (= n47 n77))) (not (= n47 n87))) (not (= n47 n97))) (not (= n48 n49))) (not (= n48 n57))) (not (= n48 n58))) (not (= n48 n59))) (not (= n48 n67))) (not (= n48 n68))) (not (= n48 n69))) (not (= n48 n78))) (not (= n48 n88))) (not (= n48 n98))) (not (= n49 n57))) (not (= n49 n58))) (not (= n49 n59))) (not (= n49 n67))) (not (= n49 n68))) (not (= n49 n69))) (not (= n49 n79))) (not (= n49 n89))) (not (= n49 n99))) (not (= n51 n52))) (not (= n51 n53))) (not (= n51 n54))) (not (= n51 n55))) (not (= n51 n56))) (not (= n51 n57))) (not (= n51 n58))) (not (= n51 n59))) (not (= n51 n61))) (not (= n51 n62))) (not (= n51 n63))) (not (= n51 n71))) (not (= n51 n81))) (not (= n51 n91))) (not (= n52 n53))) (not (= n52 n54))) (not (= n52 n55))) (not (= n52 n56))) (not (= n52 n57))) (not (= n52 n58))) (not (= n52 n59))) (not (= n52 n61))) (not (= n52 n62))) (not (= n52 n63))) (not (= n52 n72))) (not (= n52 n82))) (not (= n52 n92))) (not (= n53 n54))) (not (= n53 n55))) (not (= n53 n56))) (not (= n53 n57))) (not (= n53 n58))) (not (= n53 n59))) (not (= n53 n61))) (not (= n53 n62))) (not (= n53 n63))) (not (= n53 n73))) (not (= n53 n83))) (not (= n53 n93))) (not (= n54 n55))) (not (= n54 n56))) (not (= n54 n57))) (not (= n54 n58))) (not (= n54 n59))) (not (= n54 n64))) (not (= n54 n65))) (not (= n54 n66))) (not (= n54 n74))) (not (= n54 n84))) (not (= n54 n94))) (not (= n55 n56))) (not (= n55 n57))) (not (= n55 n58))) (not (= n55 n59))) (not (= n55 n64))) (not (= n55 n65))) (not (= n55 n66))) (not (= n55 n75))) (not (= n55 n85))) (not (= n55 n95))) (not (= n56 n57))) (not (= n56 n58))) (not (= n56 n59))) (not (= n56 n64))) (not (= n56 n65))) (not (= n56 n66))) (not (= n56 n76))) (not (= n56 n86))) (not (= n56 n96))) (not (= n57 n58))) (not (= n57 n59))) (not (= n57 n67))) (not (= n57 n68))) (not (= n57 n69))) (not (= n57 n77))) (not (= n57 n87))) (not (= n57 n97))) (not (= n58 n59))) (not (= n58 n67))) (not (= n58 n68))) (not (= n58 n69))) (not (= n58 n78))) (not (= n58 n88))) (not (= n58 n98))) (not (= n59 n67))) (not (= n59 n68))) (not (= n59 n69))) (not (= n59 n79))) (not (= n59 n89))) (not (= n59 n99))) (not (= n61 n62))) (not (= n61 n63))) (not (= n61 n64))) (not (= n61 n65))) (not (= n61 n66))) (not (= n61 n67))) (not (= n61 n68))) (not (= n61 n69))) (not (= n61 n71))) (not (= n61 n81))) (not (= n61 n91))) (not (= n62 n63))) (not (= n62 n64))) (not (= n62 n65))) (not (= n62 n66))) (not (= n62 n67))) (not (= n62 n68))) (not (= n62 n69))) (not (= n62 n72))) (not (= n62 n82))) (not (= n62 n92))) (not (= n63 n64))) (not (= n63 n65))) (not (= n63 n66))) (not (= n63 n67))) (not (= n63 n68))) (not (= n63 n69))) (not (= n63 n73))) (not (= n63 n83))) (not (= n63 n93))) (not (= n64 n65))) (not (= n64 n66))) (not (= n64 n67))) (not (= n64 n68))) (not (= n64 n69))) (not (= n64 n74))) (not (= n64 n84))) (not (= n64 n94))) (not (= n65 n66))) (not (= n65 n67))) (not (= n65 n68))) (not (= n65 n69))) (not (= n65 n75))) (not (= n65 n85))) (not (= n65 n95))) (not (= n66 n67))) (not (= n66 n68))) (not (= n66 n69))) (not (= n66 n76))) (not (= n66 n86))) (not (= n66 n96))) (not (= n67 n68))) (not (= n67 n69))) (not (= n67 n77))) (not (= n67 n87))) (not (= n67 n97))) (not (= n68 n69))) (not (= n68 n78))) (not (= n68 n88))) (not (= n68 n98))) (not (= n69 n79))) (not (= n69 n89))) (not (= n69 n99))) (not (= n71 n72))) (not (= n71 n73))) (not (= n71 n74))) (not (= n71 n75))) (not (= n71 n76))) (not (= n71 n77))) (not (= n71 n78))) (not (= n71 n79))) (not (= n71 n81))) (not (= n71 n82))) (not (= n71 n83))) (not (= n71 n91))) (not (= n71 n92))) (not (= n71 n93))) (not (= n72 n73))) (not (= n72 n74))) (not (= n72 n75))) (not (= n72 n76))) (not (= n72 n77))) (not (= n72 n78))) (not (= n72 n79))) (not (= n72 n81))) (not (= n72 n82))) (not (= n72 n83))) (not (= n72 n91))) (not (= n72 n92))) (not (= n72 n93))) (not (= n73 n74))) (not (= n73 n75))) (not (= n73 n76))) (not (= n73 n77))) (not (= n73 n78))) (not (= n73 n79))) (not (= n73 n81))) (not (= n73 n82))) (not (= n73 n83))) (not (= n73 n91))) (not (= n73 n92))) (not (= n73 n93))) (not (= n74 n75))) (not (= n74 n76))) (not (= n74 n77))) (not (= n74 n78))) (not (= n74 n79))) (not (= n74 n84))) (not (= n74 n85))) (not (= n74 n86))) (not (= n74 n94))) (not (= n74 n95))) (not (= n74 n96))) (not (= n75 n76))) (not (= n75 n77))) (not (= n75 n78))) (not (= n75 n79))) (not (= n75 n84))) (not (= n75 n85))) (not (= n75 n86))) (not (= n75 n94))) (not (= n75 n95))) (not (= n75 n96))) (not (= n76 n77))) (not (= n76 n78))) (not (= n76 n79))) (not (= n76 n84))) (not (= n76 n85))) (not (= n76 n86))) (not (= n76 n94))) (not (= n76 n95))) (not (= n76 n96))) (not (= n77 n78))) (not (= n77 n79))) (not (= n77 n87))) (not (= n77 n88))) (not (= n77 n89))) (not (= n77 n97))) (not (= n77 n98))) (not (= n77 n99))) (not (= n78 n79))) (not (= n78 n87))) (not (= n78 n88))) (not (= n78 n89))) (not (= n78 n97))) (not (= n78 n98))) (not (= n78 n99))) (not (= n79 n87))) (not (= n79 n88))) (not (= n79 n89))) (not (= n79 n97))) (not (= n79 n98))) (not (= n79 n99))) (not (= n81 n82))) (not (= n81 n83))) (not (= n81 n84))) (not (= n81 n85))) (not (= n81 n86))) (not (= n81 n87))) (not (= n81 n88))) (not (= n81 n89))) (not (= n81 n91))) (not (= n81 n92))) (not (= n81 n93))) (not (= n82 n83))) (not (= n82 n84))) (not (= n82 n85))) (not (= n82 n86))) (not (= n82 n87))) (not (= n82 n88))) (not (= n82 n89))) (not (= n82 n91))) (not (= n82 n92))) (not (= n82 n93))) (not (= n83 n84))) (not (= n83 n85))) (not (= n83 n86))) (not (= n83 n87))) (not (= n83 n88))) (not (= n83 n89))) (not (= n83 n91))) (not (= n83 n92))) (not (= n83 n93))) (not (= n84 n85))) (not (= n84 n86))) (not (= n84 n87))) (not (= n84 n88))) (not (= n84 n89))) (not (= n84 n94))) (not (= n84 n95))) (not (= n84 n96))) (not (= n85 n86))) (not (= n85 n87))) (not (= n85 n88))) (not (= n85 n89))) (not (= n85 n94))) (not (= n85 n95))) (not (= n85 n96))) (not (= n86 n87))) (not (= n86 n88))) (not (= n86 n89))) (not (= n86 n94))) (not (= n86 n95))) (not (= n86 n96))) (not (= n87 n88))) (not (= n87 n89))) (not (= n87 n97))) (not (= n87 n98))) (not (= n87 n99))) (not (= n88 n89))) (not (= n88 n97))) (not (= n88 n98))) (not (= n88 n99))) (not (= n89 n97))) (not (= n89 n98))) (not (= n89 n99))) (not (= n91 n92))) (not (= n91 n93))) (not (= n91 n94))) (not (= n91 n95))) (not (= n91 n96))) (not (= n91 n97))) (not (= n91 n98))) (not (= n91 n99))) (not (= n92 n93))) (not (= n92 n94))) (not (= n92 n95))) (not (= n92 n96))) (not (= n92 n97))) (not (= n92 n98))) (not (= n92 n99))) (not (= n93 n94))) (not (= n93 n95))) (not (= n93 n96))) (not (= n93 n97))) (not (= n93 n98))) (not (= n93 n99))) (not (= n94 n95))) (not (= n94 n96))) (not (= n94 n97))) (not (= n94 n98))) (not (= n94 n99))) (not (= n95 n96))) (not (= n95 n97))) (not (= n95 n98))) (not (= n95 n99))) (not (= n96 n97))) (not (= n96 n98))) (not (= n96 n99))) (not (= n97 n98))) (not (= n97 n99))) (not (= n98 n99))) (= n12 6)) (= n13 4)) (= n17 7)) (= n25 2)) (= n28 3)) (= n29 6)) (= n33 1)) (= n41 2)) (= n42 3)) (= n45 8)) (= n54 7)) (= n57 1)) (= n59 4)) (= n71 9)) (= n81 8)) (= n88 2)) (= n94 4)))
(minimize (+ (* 9 (+ (* 9 (+ (* 9 (+ (* 9 (+ (* 9 (+ (* 9 (+ (* 9 (+ (* 9 (+ (* 9 (+ (* 9 (+ (* 9 (+ (* 9 (+ (* 9 (+ (* 9 (+ (* 9 (+ (* 9 (+ (* 9 (+ (* 9 (+ (* 9 (+ (* 9 (+ (* 9 (+ (* 9 (+ (* 9 (+ (* 9 (+ (* 9 (+ (* 9 (+ (* 9 (+ (* 9 (+ (* 9 (+ (* 9 (+ (* 9 (+ (* 9 (+ (* 9 (+ (* 9 (+ (* 9 (+ (* 9 (+ (* 9 (+ (* 9 (+ (* 9 (+ (* 9 (+ (* 9 (+ (* 9 (+ (* 9 (+ (* 9 (+ (* 9 (+ (* 9 (+ (* 9 (+ (* 9 (+ (* 9 (+ (* 9 (+ (* 9 (+ (* 9 (+ (* 9 (+ (* 9 (+ (* 9 (+ (* 9 (+ (* 9 (+ (* 9 (+ (* 9 (+ (* 9 (+ (* 9 (+ (* 9 (+ (* 9 (+ (* 9 (+ (* 9 (+ (* 9 (+ (* 9 (+ (* 9 (+ (* 9 (+ (* 9 (+ (* 9 (+ (* 9 (+ (* 9 (+ (* 9 (+ (* 9 (+ (* 9 (+ (* 9 (+ (* 9 (+ (* 9 (+ (* 9 (- n11 1)) (- n12 1))) (- n13 1))) (- n14 1))) (- n15 1))) (- n16 1))) (- n17 1))) (- n18 1))) (- n19 1))) (- n21 1))) (- n22 1))) (- n23 1))) (- n24 1))) (- n25 1))) (- n26 1))) (- n27 1))) (- n28 1))) (- n29 1))) (- n31 1))) (- n32 1))) (- n33 1))) (- n34 1))) (- n35 1))) (- n36 1))) (- n37 1))) (- n38 1))) (- n39 1))) (- n41 1))) (- n42 1))) (- n43 1))) (- n44 1))) (- n45 1))) (- n46 1))) (- n47 1))) (- n48 1))) (- n49 1))) (- n51 1))) (- n52 1))) (- n53 1))) (- n54 1))) (- n55 1))) (- n56 1))) (- n57 1))) (- n58 1))) (- n59 1))) (- n61 1))) (- n62 1))) (- n63 1))) (- n64 1))) (- n65 1))) (- n66 1))) (- n67 1))) (- n68 1))) (- n69 1))) (- n71 1))) (- n72 1))) (- n73 1))) (- n74 1))) (- n75 1))) (- n76 1))) (- n77 1))) (- n78 1))) (- n79 1))) (- n81 1))) (- n82 1))) (- n83 1))) (- n84 1))) (- n85 1))) (- n86 1))) (- n87 1))) (- n88 1))) (- n89 1))) (- n91 1))) (- n92 1))) (- n93 1))) (- n94 1))) (- n95 1))) (- n96 1))) (- n97 1))) (- n98 1))) (- n99 1)))
(check-sat)
(get-objectives)
(get-model)
